results/x-long/X-n162-k11.vrp_seed-29.out
14156	1195
