results/x-long/X-n162-k11.vrp_seed-29.vrp.sol
Route #1: 52 79 20 67 62 114 95 129 96 88 106 100 31 140 154 111
Route #2: 145 68 58 130 99 35 36 94 66 56 123 43 142 102 116
Route #3: 76 41 69 65 51 12 70 113 63 104 83 98 47 25
Route #4: 152 23 24 13 71 37 6 49 73 38 11 48 26 28
Route #5: 156 115 103 118 30 40 157 112 87 4 101 132 93 125 92 155
Route #6: 54 8 61 46 42 33 3 64 18 19 44 75 7 34 22 78
Route #7: 15 29 10 105 139 126 138 133 107 122 84 143 144 119 72
Route #8: 141 135 147 159 82 2 109 148 134 124 128 110 153 160 85 121
Route #9: 74 108 137 39 146 151 131 57 32 16 5 120 158 81 91 136
Route #10: 161 77 97 117 27 9 21 60 55 1 14 89 149 17 127
Route #11: 59 50 45 150 90 86 53 80
Cost 14156.000000